NAME : lin105.tsp
COMMENT : Optimal tour for lin105.tsp
TYPE : TOUR
DIMENSION : 105
Total Length: 15296.313521031612
TOUR_SECTION
1
2
6
7
10
11
15
103
21
22
29
32
31
30
28
23
20
12
16
17
18
25
26
19
24
27
33
36
37
104
44
47
51
54
57
56
55
50
48
45
40
49
59
105
64
67
68
71
78
82
83
84
85
91
92
96
97
101
102
93
98
99
100
95
94
87
88
90
89
86
79
77
72
73
76
80
81
75
74
69
70
66
65
60
61
63
62
58
53
52
46
43
41
42
39
38
35
34
14
13
4
5
9
8
3
-1
EOF
